(set-info :category "industrial")
(set-info :status sat)
(declare-fun x00 () (_ BitVec 8))
(declare-fun x01 () (_ BitVec 8))
(declare-fun x02 () (_ BitVec 8))
(declare-fun x05 () (_ BitVec 8))
(declare-fun x06 () (_ BitVec 8))
(declare-fun x11 () (_ BitVec 8))
(declare-fun x12 () (_ BitVec 8))
(declare-fun x14 () (_ BitVec 8))
(declare-fun x15 () (_ BitVec 8))
(declare-fun x17 () (_ BitVec 8))
(declare-fun x20 () (_ BitVec 8))
(declare-fun x22 () (_ BitVec 8))
(declare-fun x23 () (_ BitVec 8))
(declare-fun x24 () (_ BitVec 8))
(declare-fun x26 () (_ BitVec 8))
(declare-fun x27 () (_ BitVec 8))
(declare-fun x30 () (_ BitVec 8))
(declare-fun x31 () (_ BitVec 8))
(declare-fun x32 () (_ BitVec 8))
(declare-fun x34 () (_ BitVec 8))
(declare-fun x35 () (_ BitVec 8))
(declare-fun x41 () (_ BitVec 8))
(declare-fun x42 () (_ BitVec 8))
(declare-fun x43 () (_ BitVec 8))
(declare-fun x46 () (_ BitVec 8))
(declare-fun x47 () (_ BitVec 8))
(declare-fun x50 () (_ BitVec 8))
(declare-fun x53 () (_ BitVec 8))
(declare-fun x54 () (_ BitVec 8))
(declare-fun x56 () (_ BitVec 8))
(declare-fun x57 () (_ BitVec 8))
(declare-fun x58 () (_ BitVec 8))
(declare-fun x60 () (_ BitVec 8))
(declare-fun x63 () (_ BitVec 8))
(declare-fun x64 () (_ BitVec 8))
(declare-fun x65 () (_ BitVec 8))
(declare-fun x66 () (_ BitVec 8))
(declare-fun x67 () (_ BitVec 8))
(declare-fun x68 () (_ BitVec 8))
(declare-fun x71 () (_ BitVec 8))
(declare-fun x73 () (_ BitVec 8))
(declare-fun x75 () (_ BitVec 8))
(declare-fun x76 () (_ BitVec 8))
(declare-fun x78 () (_ BitVec 8))
(declare-fun x81 () (_ BitVec 8))
(declare-fun x86 () (_ BitVec 8))
(declare-fun x88 () (_ BitVec 8))
(assert (bvult x00 (_ bv9 8)))
(assert (bvult x01 (_ bv9 8)))
(assert (bvult x02 (_ bv9 8)))
(assert (bvult x05 (_ bv9 8)))
(assert (bvult x06 (_ bv9 8)))
(assert (bvult x11 (_ bv9 8)))
(assert (bvult x12 (_ bv9 8)))
(assert (bvult x14 (_ bv9 8)))
(assert (bvult x15 (_ bv9 8)))
(assert (bvult x17 (_ bv9 8)))
(assert (bvult x20 (_ bv9 8)))
(assert (bvult x22 (_ bv9 8)))
(assert (bvult x23 (_ bv9 8)))
(assert (bvult x24 (_ bv9 8)))
(assert (bvult x26 (_ bv9 8)))
(assert (bvult x27 (_ bv9 8)))
(assert (bvult x30 (_ bv9 8)))
(assert (bvult x31 (_ bv9 8)))
(assert (bvult x32 (_ bv9 8)))
(assert (bvult x34 (_ bv9 8)))
(assert (bvult x35 (_ bv9 8)))
(assert (bvult x41 (_ bv9 8)))
(assert (bvult x42 (_ bv9 8)))
(assert (bvult x43 (_ bv9 8)))
(assert (bvult x46 (_ bv9 8)))
(assert (bvult x47 (_ bv9 8)))
(assert (bvult x50 (_ bv9 8)))
(assert (bvult x53 (_ bv9 8)))
(assert (bvult x54 (_ bv9 8)))
(assert (bvult x56 (_ bv9 8)))
(assert (bvult x57 (_ bv9 8)))
(assert (bvult x58 (_ bv9 8)))
(assert (bvult x60 (_ bv9 8)))
(assert (bvult x63 (_ bv9 8)))
(assert (bvult x64 (_ bv9 8)))
(assert (bvult x65 (_ bv9 8)))
(assert (bvult x66 (_ bv9 8)))
(assert (bvult x67 (_ bv9 8)))
(assert (bvult x68 (_ bv9 8)))
(assert (bvult x71 (_ bv9 8)))
(assert (bvult x73 (_ bv9 8)))
(assert (bvult x75 (_ bv9 8)))
(assert (bvult x76 (_ bv9 8)))
(assert (bvult x78 (_ bv9 8)))
(assert (bvult x81 (_ bv9 8)))
(assert (bvult x86 (_ bv9 8)))
(assert (bvult x88 (_ bv9 8)))
(assert (not (= x00 x01)))
(assert (not (= x00 x02)))
(assert (not (= x00 (_ bv3 8))))
(assert (not (= x00 (_ bv9 8))))
(assert (not (= x00 x05)))
(assert (not (= x00 x06)))
(assert (not (= x00 (_ bv2 8))))
(assert (not (= x00 (_ bv8 8))))
(assert (not (= x01 x02)))
(assert (not (= x01 (_ bv3 8))))
(assert (not (= x01 (_ bv9 8))))
(assert (not (= x01 x05)))
(assert (not (= x01 x06)))
(assert (not (= x01 (_ bv2 8))))
(assert (not (= x01 (_ bv8 8))))
(assert (not (= x02 (_ bv3 8))))
(assert (not (= x02 (_ bv9 8))))
(assert (not (= x02 x05)))
(assert (not (= x02 x06)))
(assert (not (= x02 (_ bv2 8))))
(assert (not (= x02 (_ bv8 8))))
(assert (not (= (_ bv3 8) (_ bv9 8))))
(assert (not (= (_ bv3 8) x05)))
(assert (not (= (_ bv3 8) x06)))
(assert (not (= (_ bv3 8) (_ bv2 8))))
(assert (not (= (_ bv3 8) (_ bv8 8))))
(assert (not (= (_ bv9 8) x05)))
(assert (not (= (_ bv9 8) x06)))
(assert (not (= (_ bv9 8) (_ bv2 8))))
(assert (not (= (_ bv9 8) (_ bv8 8))))
(assert (not (= x05 x06)))
(assert (not (= x05 (_ bv2 8))))
(assert (not (= x05 (_ bv8 8))))
(assert (not (= x06 (_ bv2 8))))
(assert (not (= x06 (_ bv8 8))))
(assert (not (= (_ bv2 8) (_ bv8 8))))
(assert (not (= (_ bv8 8) x11)))
(assert (not (= (_ bv8 8) x12)))
(assert (not (= (_ bv8 8) (_ bv7 8))))
(assert (not (= (_ bv8 8) x14)))
(assert (not (= (_ bv8 8) x15)))
(assert (not (= (_ bv8 8) (_ bv1 8))))
(assert (not (= (_ bv8 8) x17)))
(assert (not (= (_ bv8 8) (_ bv9 8))))
(assert (not (= x11 x12)))
(assert (not (= x11 (_ bv7 8))))
(assert (not (= x11 x14)))
(assert (not (= x11 x15)))
(assert (not (= x11 (_ bv1 8))))
(assert (not (= x11 x17)))
(assert (not (= x11 (_ bv9 8))))
(assert (not (= x12 (_ bv7 8))))
(assert (not (= x12 x14)))
(assert (not (= x12 x15)))
(assert (not (= x12 (_ bv1 8))))
(assert (not (= x12 x17)))
(assert (not (= x12 (_ bv9 8))))
(assert (not (= (_ bv7 8) x14)))
(assert (not (= (_ bv7 8) x15)))
(assert (not (= (_ bv7 8) (_ bv1 8))))
(assert (not (= (_ bv7 8) x17)))
(assert (not (= (_ bv7 8) (_ bv9 8))))
(assert (not (= x14 x15)))
(assert (not (= x14 (_ bv1 8))))
(assert (not (= x14 x17)))
(assert (not (= x14 (_ bv9 8))))
(assert (not (= x15 (_ bv1 8))))
(assert (not (= x15 x17)))
(assert (not (= x15 (_ bv9 8))))
(assert (not (= (_ bv1 8) x17)))
(assert (not (= (_ bv1 8) (_ bv9 8))))
(assert (not (= x17 (_ bv9 8))))
(assert (not (= x20 (_ bv4 8))))
(assert (not (= x20 x22)))
(assert (not (= x20 x23)))
(assert (not (= x20 x24)))
(assert (not (= x20 (_ bv2 8))))
(assert (not (= x20 x26)))
(assert (not (= x20 x27)))
(assert (not (= x20 (_ bv5 8))))
(assert (not (= (_ bv4 8) x22)))
(assert (not (= (_ bv4 8) x23)))
(assert (not (= (_ bv4 8) x24)))
(assert (not (= (_ bv4 8) (_ bv2 8))))
(assert (not (= (_ bv4 8) x26)))
(assert (not (= (_ bv4 8) x27)))
(assert (not (= (_ bv4 8) (_ bv5 8))))
(assert (not (= x22 x23)))
(assert (not (= x22 x24)))
(assert (not (= x22 (_ bv2 8))))
(assert (not (= x22 x26)))
(assert (not (= x22 x27)))
(assert (not (= x22 (_ bv5 8))))
(assert (not (= x23 x24)))
(assert (not (= x23 (_ bv2 8))))
(assert (not (= x23 x26)))
(assert (not (= x23 x27)))
(assert (not (= x23 (_ bv5 8))))
(assert (not (= x24 (_ bv2 8))))
(assert (not (= x24 x26)))
(assert (not (= x24 x27)))
(assert (not (= x24 (_ bv5 8))))
(assert (not (= (_ bv2 8) x26)))
(assert (not (= (_ bv2 8) x27)))
(assert (not (= (_ bv2 8) (_ bv5 8))))
(assert (not (= x26 x27)))
(assert (not (= x26 (_ bv5 8))))
(assert (not (= x27 (_ bv5 8))))
(assert (not (= x30 x31)))
(assert (not (= x30 x32)))
(assert (not (= x30 (_ bv1 8))))
(assert (not (= x30 x34)))
(assert (not (= x30 x35)))
(assert (not (= x30 (_ bv5 8))))
(assert (not (= x30 (_ bv4 8))))
(assert (not (= x30 (_ bv7 8))))
(assert (not (= x31 x32)))
(assert (not (= x31 (_ bv1 8))))
(assert (not (= x31 x34)))
(assert (not (= x31 x35)))
(assert (not (= x31 (_ bv5 8))))
(assert (not (= x31 (_ bv4 8))))
(assert (not (= x31 (_ bv7 8))))
(assert (not (= x32 (_ bv1 8))))
(assert (not (= x32 x34)))
(assert (not (= x32 x35)))
(assert (not (= x32 (_ bv5 8))))
(assert (not (= x32 (_ bv4 8))))
(assert (not (= x32 (_ bv7 8))))
(assert (not (= (_ bv1 8) x34)))
(assert (not (= (_ bv1 8) x35)))
(assert (not (= (_ bv1 8) (_ bv5 8))))
(assert (not (= (_ bv1 8) (_ bv4 8))))
(assert (not (= (_ bv1 8) (_ bv7 8))))
(assert (not (= x34 x35)))
(assert (not (= x34 (_ bv5 8))))
(assert (not (= x34 (_ bv4 8))))
(assert (not (= x34 (_ bv7 8))))
(assert (not (= x35 (_ bv5 8))))
(assert (not (= x35 (_ bv4 8))))
(assert (not (= x35 (_ bv7 8))))
(assert (not (= (_ bv5 8) (_ bv4 8))))
(assert (not (= (_ bv5 8) (_ bv7 8))))
(assert (not (= (_ bv4 8) (_ bv7 8))))
(assert (not (= (_ bv7 8) x41)))
(assert (not (= (_ bv7 8) x42)))
(assert (not (= (_ bv7 8) x43)))
(assert (not (= (_ bv7 8) (_ bv3 8))))
(assert (not (= (_ bv7 8) (_ bv9 8))))
(assert (not (= (_ bv7 8) x46)))
(assert (not (= (_ bv7 8) x47)))
(assert (not (= (_ bv7 8) (_ bv2 8))))
(assert (not (= x41 x42)))
(assert (not (= x41 x43)))
(assert (not (= x41 (_ bv3 8))))
(assert (not (= x41 (_ bv9 8))))
(assert (not (= x41 x46)))
(assert (not (= x41 x47)))
(assert (not (= x41 (_ bv2 8))))
(assert (not (= x42 x43)))
(assert (not (= x42 (_ bv3 8))))
(assert (not (= x42 (_ bv9 8))))
(assert (not (= x42 x46)))
(assert (not (= x42 x47)))
(assert (not (= x42 (_ bv2 8))))
(assert (not (= x43 (_ bv3 8))))
(assert (not (= x43 (_ bv9 8))))
(assert (not (= x43 x46)))
(assert (not (= x43 x47)))
(assert (not (= x43 (_ bv2 8))))
(assert (not (= (_ bv3 8) (_ bv9 8))))
(assert (not (= (_ bv3 8) x46)))
(assert (not (= (_ bv3 8) x47)))
(assert (not (= (_ bv3 8) (_ bv2 8))))
(assert (not (= (_ bv9 8) x46)))
(assert (not (= (_ bv9 8) x47)))
(assert (not (= (_ bv9 8) (_ bv2 8))))
(assert (not (= x46 x47)))
(assert (not (= x46 (_ bv2 8))))
(assert (not (= x47 (_ bv2 8))))
(assert (not (= x50 (_ bv6 8))))
(assert (not (= x50 (_ bv5 8))))
(assert (not (= x50 x53)))
(assert (not (= x50 x54)))
(assert (not (= x50 (_ bv8 8))))
(assert (not (= x50 x56)))
(assert (not (= x50 x57)))
(assert (not (= x50 x58)))
(assert (not (= (_ bv6 8) (_ bv5 8))))
(assert (not (= (_ bv6 8) x53)))
(assert (not (= (_ bv6 8) x54)))
(assert (not (= (_ bv6 8) (_ bv8 8))))
(assert (not (= (_ bv6 8) x56)))
(assert (not (= (_ bv6 8) x57)))
(assert (not (= (_ bv6 8) x58)))
(assert (not (= (_ bv5 8) x53)))
(assert (not (= (_ bv5 8) x54)))
(assert (not (= (_ bv5 8) (_ bv8 8))))
(assert (not (= (_ bv5 8) x56)))
(assert (not (= (_ bv5 8) x57)))
(assert (not (= (_ bv5 8) x58)))
(assert (not (= x53 x54)))
(assert (not (= x53 (_ bv8 8))))
(assert (not (= x53 x56)))
(assert (not (= x53 x57)))
(assert (not (= x53 x58)))
(assert (not (= x54 (_ bv8 8))))
(assert (not (= x54 x56)))
(assert (not (= x54 x57)))
(assert (not (= x54 x58)))
(assert (not (= (_ bv8 8) x56)))
(assert (not (= (_ bv8 8) x57)))
(assert (not (= (_ bv8 8) x58)))
(assert (not (= x56 x57)))
(assert (not (= x56 x58)))
(assert (not (= x57 x58)))
(assert (not (= x60 (_ bv8 8))))
(assert (not (= x60 (_ bv3 8))))
(assert (not (= x60 x63)))
(assert (not (= x60 x64)))
(assert (not (= x60 x65)))
(assert (not (= x60 x66)))
(assert (not (= x60 x67)))
(assert (not (= x60 x68)))
(assert (not (= (_ bv8 8) (_ bv3 8))))
(assert (not (= (_ bv8 8) x63)))
(assert (not (= (_ bv8 8) x64)))
(assert (not (= (_ bv8 8) x65)))
(assert (not (= (_ bv8 8) x66)))
(assert (not (= (_ bv8 8) x67)))
(assert (not (= (_ bv8 8) x68)))
(assert (not (= (_ bv3 8) x63)))
(assert (not (= (_ bv3 8) x64)))
(assert (not (= (_ bv3 8) x65)))
(assert (not (= (_ bv3 8) x66)))
(assert (not (= (_ bv3 8) x67)))
(assert (not (= (_ bv3 8) x68)))
(assert (not (= x63 x64)))
(assert (not (= x63 x65)))
(assert (not (= x63 x66)))
(assert (not (= x63 x67)))
(assert (not (= x63 x68)))
(assert (not (= x64 x65)))
(assert (not (= x64 x66)))
(assert (not (= x64 x67)))
(assert (not (= x64 x68)))
(assert (not (= x65 x66)))
(assert (not (= x65 x67)))
(assert (not (= x65 x68)))
(assert (not (= x66 x67)))
(assert (not (= x66 x68)))
(assert (not (= x67 x68)))
(assert (not (= (_ bv6 8) x71)))
(assert (not (= (_ bv6 8) (_ bv1 8))))
(assert (not (= (_ bv6 8) x73)))
(assert (not (= (_ bv6 8) (_ bv5 8))))
(assert (not (= (_ bv6 8) x75)))
(assert (not (= (_ bv6 8) x76)))
(assert (not (= (_ bv6 8) (_ bv9 8))))
(assert (not (= (_ bv6 8) x78)))
(assert (not (= x71 (_ bv1 8))))
(assert (not (= x71 x73)))
(assert (not (= x71 (_ bv5 8))))
(assert (not (= x71 x75)))
(assert (not (= x71 x76)))
(assert (not (= x71 (_ bv9 8))))
(assert (not (= x71 x78)))
(assert (not (= (_ bv1 8) x73)))
(assert (not (= (_ bv1 8) (_ bv5 8))))
(assert (not (= (_ bv1 8) x75)))
(assert (not (= (_ bv1 8) x76)))
(assert (not (= (_ bv1 8) (_ bv9 8))))
(assert (not (= (_ bv1 8) x78)))
(assert (not (= x73 (_ bv5 8))))
(assert (not (= x73 x75)))
(assert (not (= x73 x76)))
(assert (not (= x73 (_ bv9 8))))
(assert (not (= x73 x78)))
(assert (not (= (_ bv5 8) x75)))
(assert (not (= (_ bv5 8) x76)))
(assert (not (= (_ bv5 8) (_ bv9 8))))
(assert (not (= (_ bv5 8) x78)))
(assert (not (= x75 x76)))
(assert (not (= x75 (_ bv9 8))))
(assert (not (= x75 x78)))
(assert (not (= x76 (_ bv9 8))))
(assert (not (= x76 x78)))
(assert (not (= (_ bv9 8) x78)))
(assert (not (= (_ bv9 8) x81)))
(assert (not (= (_ bv9 8) (_ bv7 8))))
(assert (not (= (_ bv9 8) (_ bv2 8))))
(assert (not (= (_ bv9 8) (_ bv6 8))))
(assert (not (= (_ bv9 8) (_ bv4 8))))
(assert (not (= (_ bv9 8) x86)))
(assert (not (= (_ bv9 8) (_ bv3 8))))
(assert (not (= (_ bv9 8) x88)))
(assert (not (= x81 (_ bv7 8))))
(assert (not (= x81 (_ bv2 8))))
(assert (not (= x81 (_ bv6 8))))
(assert (not (= x81 (_ bv4 8))))
(assert (not (= x81 x86)))
(assert (not (= x81 (_ bv3 8))))
(assert (not (= x81 x88)))
(assert (not (= (_ bv7 8) (_ bv2 8))))
(assert (not (= (_ bv7 8) (_ bv6 8))))
(assert (not (= (_ bv7 8) (_ bv4 8))))
(assert (not (= (_ bv7 8) x86)))
(assert (not (= (_ bv7 8) (_ bv3 8))))
(assert (not (= (_ bv7 8) x88)))
(assert (not (= (_ bv2 8) (_ bv6 8))))
(assert (not (= (_ bv2 8) (_ bv4 8))))
(assert (not (= (_ bv2 8) x86)))
(assert (not (= (_ bv2 8) (_ bv3 8))))
(assert (not (= (_ bv2 8) x88)))
(assert (not (= (_ bv6 8) (_ bv4 8))))
(assert (not (= (_ bv6 8) x86)))
(assert (not (= (_ bv6 8) (_ bv3 8))))
(assert (not (= (_ bv6 8) x88)))
(assert (not (= (_ bv4 8) x86)))
(assert (not (= (_ bv4 8) (_ bv3 8))))
(assert (not (= (_ bv4 8) x88)))
(assert (not (= x86 (_ bv3 8))))
(assert (not (= x86 x88)))
(assert (not (= (_ bv3 8) x88)))
(assert (not (= x00 (_ bv8 8))))
(assert (not (= x00 x20)))
(assert (not (= x00 x30)))
(assert (not (= x00 (_ bv7 8))))
(assert (not (= x00 x50)))
(assert (not (= x00 x60)))
(assert (not (= x00 (_ bv6 8))))
(assert (not (= x00 (_ bv9 8))))
(assert (not (= (_ bv8 8) x20)))
(assert (not (= (_ bv8 8) x30)))
(assert (not (= (_ bv8 8) (_ bv7 8))))
(assert (not (= (_ bv8 8) x50)))
(assert (not (= (_ bv8 8) x60)))
(assert (not (= (_ bv8 8) (_ bv6 8))))
(assert (not (= (_ bv8 8) (_ bv9 8))))
(assert (not (= x20 x30)))
(assert (not (= x20 (_ bv7 8))))
(assert (not (= x20 x50)))
(assert (not (= x20 x60)))
(assert (not (= x20 (_ bv6 8))))
(assert (not (= x20 (_ bv9 8))))
(assert (not (= x30 (_ bv7 8))))
(assert (not (= x30 x50)))
(assert (not (= x30 x60)))
(assert (not (= x30 (_ bv6 8))))
(assert (not (= x30 (_ bv9 8))))
(assert (not (= (_ bv7 8) x50)))
(assert (not (= (_ bv7 8) x60)))
(assert (not (= (_ bv7 8) (_ bv6 8))))
(assert (not (= (_ bv7 8) (_ bv9 8))))
(assert (not (= x50 x60)))
(assert (not (= x50 (_ bv6 8))))
(assert (not (= x50 (_ bv9 8))))
(assert (not (= x60 (_ bv6 8))))
(assert (not (= x60 (_ bv9 8))))
(assert (not (= (_ bv6 8) (_ bv9 8))))
(assert (not (= x01 x11)))
(assert (not (= x01 (_ bv4 8))))
(assert (not (= x01 x31)))
(assert (not (= x01 x41)))
(assert (not (= x01 (_ bv6 8))))
(assert (not (= x01 (_ bv8 8))))
(assert (not (= x01 x71)))
(assert (not (= x01 x81)))
(assert (not (= x11 (_ bv4 8))))
(assert (not (= x11 x31)))
(assert (not (= x11 x41)))
(assert (not (= x11 (_ bv6 8))))
(assert (not (= x11 (_ bv8 8))))
(assert (not (= x11 x71)))
(assert (not (= x11 x81)))
(assert (not (= (_ bv4 8) x31)))
(assert (not (= (_ bv4 8) x41)))
(assert (not (= (_ bv4 8) (_ bv6 8))))
(assert (not (= (_ bv4 8) (_ bv8 8))))
(assert (not (= (_ bv4 8) x71)))
(assert (not (= (_ bv4 8) x81)))
(assert (not (= x31 x41)))
(assert (not (= x31 (_ bv6 8))))
(assert (not (= x31 (_ bv8 8))))
(assert (not (= x31 x71)))
(assert (not (= x31 x81)))
(assert (not (= x41 (_ bv6 8))))
(assert (not (= x41 (_ bv8 8))))
(assert (not (= x41 x71)))
(assert (not (= x41 x81)))
(assert (not (= (_ bv6 8) (_ bv8 8))))
(assert (not (= (_ bv6 8) x71)))
(assert (not (= (_ bv6 8) x81)))
(assert (not (= (_ bv8 8) x71)))
(assert (not (= (_ bv8 8) x81)))
(assert (not (= x71 x81)))
(assert (not (= x02 x12)))
(assert (not (= x02 x22)))
(assert (not (= x02 x32)))
(assert (not (= x02 x42)))
(assert (not (= x02 (_ bv5 8))))
(assert (not (= x02 (_ bv3 8))))
(assert (not (= x02 (_ bv1 8))))
(assert (not (= x02 (_ bv7 8))))
(assert (not (= x12 x22)))
(assert (not (= x12 x32)))
(assert (not (= x12 x42)))
(assert (not (= x12 (_ bv5 8))))
(assert (not (= x12 (_ bv3 8))))
(assert (not (= x12 (_ bv1 8))))
(assert (not (= x12 (_ bv7 8))))
(assert (not (= x22 x32)))
(assert (not (= x22 x42)))
(assert (not (= x22 (_ bv5 8))))
(assert (not (= x22 (_ bv3 8))))
(assert (not (= x22 (_ bv1 8))))
(assert (not (= x22 (_ bv7 8))))
(assert (not (= x32 x42)))
(assert (not (= x32 (_ bv5 8))))
(assert (not (= x32 (_ bv3 8))))
(assert (not (= x32 (_ bv1 8))))
(assert (not (= x32 (_ bv7 8))))
(assert (not (= x42 (_ bv5 8))))
(assert (not (= x42 (_ bv3 8))))
(assert (not (= x42 (_ bv1 8))))
(assert (not (= x42 (_ bv7 8))))
(assert (not (= (_ bv5 8) (_ bv3 8))))
(assert (not (= (_ bv5 8) (_ bv1 8))))
(assert (not (= (_ bv5 8) (_ bv7 8))))
(assert (not (= (_ bv3 8) (_ bv1 8))))
(assert (not (= (_ bv3 8) (_ bv7 8))))
(assert (not (= (_ bv1 8) (_ bv7 8))))
(assert (not (= (_ bv3 8) (_ bv7 8))))
(assert (not (= (_ bv3 8) x23)))
(assert (not (= (_ bv3 8) (_ bv1 8))))
(assert (not (= (_ bv3 8) x43)))
(assert (not (= (_ bv3 8) x53)))
(assert (not (= (_ bv3 8) x63)))
(assert (not (= (_ bv3 8) x73)))
(assert (not (= (_ bv3 8) (_ bv2 8))))
(assert (not (= (_ bv7 8) x23)))
(assert (not (= (_ bv7 8) (_ bv1 8))))
(assert (not (= (_ bv7 8) x43)))
(assert (not (= (_ bv7 8) x53)))
(assert (not (= (_ bv7 8) x63)))
(assert (not (= (_ bv7 8) x73)))
(assert (not (= (_ bv7 8) (_ bv2 8))))
(assert (not (= x23 (_ bv1 8))))
(assert (not (= x23 x43)))
(assert (not (= x23 x53)))
(assert (not (= x23 x63)))
(assert (not (= x23 x73)))
(assert (not (= x23 (_ bv2 8))))
(assert (not (= (_ bv1 8) x43)))
(assert (not (= (_ bv1 8) x53)))
(assert (not (= (_ bv1 8) x63)))
(assert (not (= (_ bv1 8) x73)))
(assert (not (= (_ bv1 8) (_ bv2 8))))
(assert (not (= x43 x53)))
(assert (not (= x43 x63)))
(assert (not (= x43 x73)))
(assert (not (= x43 (_ bv2 8))))
(assert (not (= x53 x63)))
(assert (not (= x53 x73)))
(assert (not (= x53 (_ bv2 8))))
(assert (not (= x63 x73)))
(assert (not (= x63 (_ bv2 8))))
(assert (not (= x73 (_ bv2 8))))
(assert (not (= (_ bv9 8) x14)))
(assert (not (= (_ bv9 8) x24)))
(assert (not (= (_ bv9 8) x34)))
(assert (not (= (_ bv9 8) (_ bv3 8))))
(assert (not (= (_ bv9 8) x54)))
(assert (not (= (_ bv9 8) x64)))
(assert (not (= (_ bv9 8) (_ bv5 8))))
(assert (not (= (_ bv9 8) (_ bv6 8))))
(assert (not (= x14 x24)))
(assert (not (= x14 x34)))
(assert (not (= x14 (_ bv3 8))))
(assert (not (= x14 x54)))
(assert (not (= x14 x64)))
(assert (not (= x14 (_ bv5 8))))
(assert (not (= x14 (_ bv6 8))))
(assert (not (= x24 x34)))
(assert (not (= x24 (_ bv3 8))))
(assert (not (= x24 x54)))
(assert (not (= x24 x64)))
(assert (not (= x24 (_ bv5 8))))
(assert (not (= x24 (_ bv6 8))))
(assert (not (= x34 (_ bv3 8))))
(assert (not (= x34 x54)))
(assert (not (= x34 x64)))
(assert (not (= x34 (_ bv5 8))))
(assert (not (= x34 (_ bv6 8))))
(assert (not (= (_ bv3 8) x54)))
(assert (not (= (_ bv3 8) x64)))
(assert (not (= (_ bv3 8) (_ bv5 8))))
(assert (not (= (_ bv3 8) (_ bv6 8))))
(assert (not (= x54 x64)))
(assert (not (= x54 (_ bv5 8))))
(assert (not (= x54 (_ bv6 8))))
(assert (not (= x64 (_ bv5 8))))
(assert (not (= x64 (_ bv6 8))))
(assert (not (= (_ bv5 8) (_ bv6 8))))
(assert (not (= x05 x15)))
(assert (not (= x05 (_ bv2 8))))
(assert (not (= x05 x35)))
(assert (not (= x05 (_ bv9 8))))
(assert (not (= x05 (_ bv8 8))))
(assert (not (= x05 x65)))
(assert (not (= x05 x75)))
(assert (not (= x05 (_ bv4 8))))
(assert (not (= x15 (_ bv2 8))))
(assert (not (= x15 x35)))
(assert (not (= x15 (_ bv9 8))))
(assert (not (= x15 (_ bv8 8))))
(assert (not (= x15 x65)))
(assert (not (= x15 x75)))
(assert (not (= x15 (_ bv4 8))))
(assert (not (= (_ bv2 8) x35)))
(assert (not (= (_ bv2 8) (_ bv9 8))))
(assert (not (= (_ bv2 8) (_ bv8 8))))
(assert (not (= (_ bv2 8) x65)))
(assert (not (= (_ bv2 8) x75)))
(assert (not (= (_ bv2 8) (_ bv4 8))))
(assert (not (= x35 (_ bv9 8))))
(assert (not (= x35 (_ bv8 8))))
(assert (not (= x35 x65)))
(assert (not (= x35 x75)))
(assert (not (= x35 (_ bv4 8))))
(assert (not (= (_ bv9 8) (_ bv8 8))))
(assert (not (= (_ bv9 8) x65)))
(assert (not (= (_ bv9 8) x75)))
(assert (not (= (_ bv9 8) (_ bv4 8))))
(assert (not (= (_ bv8 8) x65)))
(assert (not (= (_ bv8 8) x75)))
(assert (not (= (_ bv8 8) (_ bv4 8))))
(assert (not (= x65 x75)))
(assert (not (= x65 (_ bv4 8))))
(assert (not (= x75 (_ bv4 8))))
(assert (not (= x06 (_ bv1 8))))
(assert (not (= x06 x26)))
(assert (not (= x06 (_ bv5 8))))
(assert (not (= x06 x46)))
(assert (not (= x06 x56)))
(assert (not (= x06 x66)))
(assert (not (= x06 x76)))
(assert (not (= x06 x86)))
(assert (not (= (_ bv1 8) x26)))
(assert (not (= (_ bv1 8) (_ bv5 8))))
(assert (not (= (_ bv1 8) x46)))
(assert (not (= (_ bv1 8) x56)))
(assert (not (= (_ bv1 8) x66)))
(assert (not (= (_ bv1 8) x76)))
(assert (not (= (_ bv1 8) x86)))
(assert (not (= x26 (_ bv5 8))))
(assert (not (= x26 x46)))
(assert (not (= x26 x56)))
(assert (not (= x26 x66)))
(assert (not (= x26 x76)))
(assert (not (= x26 x86)))
(assert (not (= (_ bv5 8) x46)))
(assert (not (= (_ bv5 8) x56)))
(assert (not (= (_ bv5 8) x66)))
(assert (not (= (_ bv5 8) x76)))
(assert (not (= (_ bv5 8) x86)))
(assert (not (= x46 x56)))
(assert (not (= x46 x66)))
(assert (not (= x46 x76)))
(assert (not (= x46 x86)))
(assert (not (= x56 x66)))
(assert (not (= x56 x76)))
(assert (not (= x56 x86)))
(assert (not (= x66 x76)))
(assert (not (= x66 x86)))
(assert (not (= x76 x86)))
(assert (not (= (_ bv2 8) x17)))
(assert (not (= (_ bv2 8) x27)))
(assert (not (= (_ bv2 8) (_ bv4 8))))
(assert (not (= (_ bv2 8) x47)))
(assert (not (= (_ bv2 8) x57)))
(assert (not (= (_ bv2 8) x67)))
(assert (not (= (_ bv2 8) (_ bv9 8))))
(assert (not (= (_ bv2 8) (_ bv3 8))))
(assert (not (= x17 x27)))
(assert (not (= x17 (_ bv4 8))))
(assert (not (= x17 x47)))
(assert (not (= x17 x57)))
(assert (not (= x17 x67)))
(assert (not (= x17 (_ bv9 8))))
(assert (not (= x17 (_ bv3 8))))
(assert (not (= x27 (_ bv4 8))))
(assert (not (= x27 x47)))
(assert (not (= x27 x57)))
(assert (not (= x27 x67)))
(assert (not (= x27 (_ bv9 8))))
(assert (not (= x27 (_ bv3 8))))
(assert (not (= (_ bv4 8) x47)))
(assert (not (= (_ bv4 8) x57)))
(assert (not (= (_ bv4 8) x67)))
(assert (not (= (_ bv4 8) (_ bv9 8))))
(assert (not (= (_ bv4 8) (_ bv3 8))))
(assert (not (= x47 x57)))
(assert (not (= x47 x67)))
(assert (not (= x47 (_ bv9 8))))
(assert (not (= x47 (_ bv3 8))))
(assert (not (= x57 x67)))
(assert (not (= x57 (_ bv9 8))))
(assert (not (= x57 (_ bv3 8))))
(assert (not (= x67 (_ bv9 8))))
(assert (not (= x67 (_ bv3 8))))
(assert (not (= (_ bv9 8) (_ bv3 8))))
(assert (not (= (_ bv8 8) (_ bv9 8))))
(assert (not (= (_ bv8 8) (_ bv5 8))))
(assert (not (= (_ bv8 8) (_ bv7 8))))
(assert (not (= (_ bv8 8) (_ bv2 8))))
(assert (not (= (_ bv8 8) x58)))
(assert (not (= (_ bv8 8) x68)))
(assert (not (= (_ bv8 8) x78)))
(assert (not (= (_ bv8 8) x88)))
(assert (not (= (_ bv9 8) (_ bv5 8))))
(assert (not (= (_ bv9 8) (_ bv7 8))))
(assert (not (= (_ bv9 8) (_ bv2 8))))
(assert (not (= (_ bv9 8) x58)))
(assert (not (= (_ bv9 8) x68)))
(assert (not (= (_ bv9 8) x78)))
(assert (not (= (_ bv9 8) x88)))
(assert (not (= (_ bv5 8) (_ bv7 8))))
(assert (not (= (_ bv5 8) (_ bv2 8))))
(assert (not (= (_ bv5 8) x58)))
(assert (not (= (_ bv5 8) x68)))
(assert (not (= (_ bv5 8) x78)))
(assert (not (= (_ bv5 8) x88)))
(assert (not (= (_ bv7 8) (_ bv2 8))))
(assert (not (= (_ bv7 8) x58)))
(assert (not (= (_ bv7 8) x68)))
(assert (not (= (_ bv7 8) x78)))
(assert (not (= (_ bv7 8) x88)))
(assert (not (= (_ bv2 8) x58)))
(assert (not (= (_ bv2 8) x68)))
(assert (not (= (_ bv2 8) x78)))
(assert (not (= (_ bv2 8) x88)))
(assert (not (= x58 x68)))
(assert (not (= x58 x78)))
(assert (not (= x58 x88)))
(assert (not (= x68 x78)))
(assert (not (= x68 x88)))
(assert (not (= x78 x88)))
(assert (not (= x00 x01)))
(assert (not (= x00 x02)))
(assert (not (= x00 (_ bv8 8))))
(assert (not (= x00 x11)))
(assert (not (= x00 x12)))
(assert (not (= x00 x20)))
(assert (not (= x00 (_ bv4 8))))
(assert (not (= x00 x22)))
(assert (not (= x01 x02)))
(assert (not (= x01 (_ bv8 8))))
(assert (not (= x01 x11)))
(assert (not (= x01 x12)))
(assert (not (= x01 x20)))
(assert (not (= x01 (_ bv4 8))))
(assert (not (= x01 x22)))
(assert (not (= x02 (_ bv8 8))))
(assert (not (= x02 x11)))
(assert (not (= x02 x12)))
(assert (not (= x02 x20)))
(assert (not (= x02 (_ bv4 8))))
(assert (not (= x02 x22)))
(assert (not (= (_ bv8 8) x11)))
(assert (not (= (_ bv8 8) x12)))
(assert (not (= (_ bv8 8) x20)))
(assert (not (= (_ bv8 8) (_ bv4 8))))
(assert (not (= (_ bv8 8) x22)))
(assert (not (= x11 x12)))
(assert (not (= x11 x20)))
(assert (not (= x11 (_ bv4 8))))
(assert (not (= x11 x22)))
(assert (not (= x12 x20)))
(assert (not (= x12 (_ bv4 8))))
(assert (not (= x12 x22)))
(assert (not (= x20 (_ bv4 8))))
(assert (not (= x20 x22)))
(assert (not (= (_ bv4 8) x22)))
(assert (not (= (_ bv3 8) (_ bv9 8))))
(assert (not (= (_ bv3 8) x05)))
(assert (not (= (_ bv3 8) (_ bv7 8))))
(assert (not (= (_ bv3 8) x14)))
(assert (not (= (_ bv3 8) x15)))
(assert (not (= (_ bv3 8) x23)))
(assert (not (= (_ bv3 8) x24)))
(assert (not (= (_ bv3 8) (_ bv2 8))))
(assert (not (= (_ bv9 8) x05)))
(assert (not (= (_ bv9 8) (_ bv7 8))))
(assert (not (= (_ bv9 8) x14)))
(assert (not (= (_ bv9 8) x15)))
(assert (not (= (_ bv9 8) x23)))
(assert (not (= (_ bv9 8) x24)))
(assert (not (= (_ bv9 8) (_ bv2 8))))
(assert (not (= x05 (_ bv7 8))))
(assert (not (= x05 x14)))
(assert (not (= x05 x15)))
(assert (not (= x05 x23)))
(assert (not (= x05 x24)))
(assert (not (= x05 (_ bv2 8))))
(assert (not (= (_ bv7 8) x14)))
(assert (not (= (_ bv7 8) x15)))
(assert (not (= (_ bv7 8) x23)))
(assert (not (= (_ bv7 8) x24)))
(assert (not (= (_ bv7 8) (_ bv2 8))))
(assert (not (= x14 x15)))
(assert (not (= x14 x23)))
(assert (not (= x14 x24)))
(assert (not (= x14 (_ bv2 8))))
(assert (not (= x15 x23)))
(assert (not (= x15 x24)))
(assert (not (= x15 (_ bv2 8))))
(assert (not (= x23 x24)))
(assert (not (= x23 (_ bv2 8))))
(assert (not (= x24 (_ bv2 8))))
(assert (not (= x06 (_ bv2 8))))
(assert (not (= x06 (_ bv8 8))))
(assert (not (= x06 (_ bv1 8))))
(assert (not (= x06 x17)))
(assert (not (= x06 (_ bv9 8))))
(assert (not (= x06 x26)))
(assert (not (= x06 x27)))
(assert (not (= x06 (_ bv5 8))))
(assert (not (= (_ bv2 8) (_ bv8 8))))
(assert (not (= (_ bv2 8) (_ bv1 8))))
(assert (not (= (_ bv2 8) x17)))
(assert (not (= (_ bv2 8) (_ bv9 8))))
(assert (not (= (_ bv2 8) x26)))
(assert (not (= (_ bv2 8) x27)))
(assert (not (= (_ bv2 8) (_ bv5 8))))
(assert (not (= (_ bv8 8) (_ bv1 8))))
(assert (not (= (_ bv8 8) x17)))
(assert (not (= (_ bv8 8) (_ bv9 8))))
(assert (not (= (_ bv8 8) x26)))
(assert (not (= (_ bv8 8) x27)))
(assert (not (= (_ bv8 8) (_ bv5 8))))
(assert (not (= (_ bv1 8) x17)))
(assert (not (= (_ bv1 8) (_ bv9 8))))
(assert (not (= (_ bv1 8) x26)))
(assert (not (= (_ bv1 8) x27)))
(assert (not (= (_ bv1 8) (_ bv5 8))))
(assert (not (= x17 (_ bv9 8))))
(assert (not (= x17 x26)))
(assert (not (= x17 x27)))
(assert (not (= x17 (_ bv5 8))))
(assert (not (= (_ bv9 8) x26)))
(assert (not (= (_ bv9 8) x27)))
(assert (not (= (_ bv9 8) (_ bv5 8))))
(assert (not (= x26 x27)))
(assert (not (= x26 (_ bv5 8))))
(assert (not (= x27 (_ bv5 8))))
(assert (not (= x30 x31)))
(assert (not (= x30 x32)))
(assert (not (= x30 (_ bv7 8))))
(assert (not (= x30 x41)))
(assert (not (= x30 x42)))
(assert (not (= x30 x50)))
(assert (not (= x30 (_ bv6 8))))
(assert (not (= x30 (_ bv5 8))))
(assert (not (= x31 x32)))
(assert (not (= x31 (_ bv7 8))))
(assert (not (= x31 x41)))
(assert (not (= x31 x42)))
(assert (not (= x31 x50)))
(assert (not (= x31 (_ bv6 8))))
(assert (not (= x31 (_ bv5 8))))
(assert (not (= x32 (_ bv7 8))))
(assert (not (= x32 x41)))
(assert (not (= x32 x42)))
(assert (not (= x32 x50)))
(assert (not (= x32 (_ bv6 8))))
(assert (not (= x32 (_ bv5 8))))
(assert (not (= (_ bv7 8) x41)))
(assert (not (= (_ bv7 8) x42)))
(assert (not (= (_ bv7 8) x50)))
(assert (not (= (_ bv7 8) (_ bv6 8))))
(assert (not (= (_ bv7 8) (_ bv5 8))))
(assert (not (= x41 x42)))
(assert (not (= x41 x50)))
(assert (not (= x41 (_ bv6 8))))
(assert (not (= x41 (_ bv5 8))))
(assert (not (= x42 x50)))
(assert (not (= x42 (_ bv6 8))))
(assert (not (= x42 (_ bv5 8))))
(assert (not (= x50 (_ bv6 8))))
(assert (not (= x50 (_ bv5 8))))
(assert (not (= (_ bv6 8) (_ bv5 8))))
(assert (not (= (_ bv1 8) x34)))
(assert (not (= (_ bv1 8) x35)))
(assert (not (= (_ bv1 8) x43)))
(assert (not (= (_ bv1 8) (_ bv3 8))))
(assert (not (= (_ bv1 8) (_ bv9 8))))
(assert (not (= (_ bv1 8) x53)))
(assert (not (= (_ bv1 8) x54)))
(assert (not (= (_ bv1 8) (_ bv8 8))))
(assert (not (= x34 x35)))
(assert (not (= x34 x43)))
(assert (not (= x34 (_ bv3 8))))
(assert (not (= x34 (_ bv9 8))))
(assert (not (= x34 x53)))
(assert (not (= x34 x54)))
(assert (not (= x34 (_ bv8 8))))
(assert (not (= x35 x43)))
(assert (not (= x35 (_ bv3 8))))
(assert (not (= x35 (_ bv9 8))))
(assert (not (= x35 x53)))
(assert (not (= x35 x54)))
(assert (not (= x35 (_ bv8 8))))
(assert (not (= x43 (_ bv3 8))))
(assert (not (= x43 (_ bv9 8))))
(assert (not (= x43 x53)))
(assert (not (= x43 x54)))
(assert (not (= x43 (_ bv8 8))))
(assert (not (= (_ bv3 8) (_ bv9 8))))
(assert (not (= (_ bv3 8) x53)))
(assert (not (= (_ bv3 8) x54)))
(assert (not (= (_ bv3 8) (_ bv8 8))))
(assert (not (= (_ bv9 8) x53)))
(assert (not (= (_ bv9 8) x54)))
(assert (not (= (_ bv9 8) (_ bv8 8))))
(assert (not (= x53 x54)))
(assert (not (= x53 (_ bv8 8))))
(assert (not (= x54 (_ bv8 8))))
(assert (not (= (_ bv5 8) (_ bv4 8))))
(assert (not (= (_ bv5 8) (_ bv7 8))))
(assert (not (= (_ bv5 8) x46)))
(assert (not (= (_ bv5 8) x47)))
(assert (not (= (_ bv5 8) (_ bv2 8))))
(assert (not (= (_ bv5 8) x56)))
(assert (not (= (_ bv5 8) x57)))
(assert (not (= (_ bv5 8) x58)))
(assert (not (= (_ bv4 8) (_ bv7 8))))
(assert (not (= (_ bv4 8) x46)))
(assert (not (= (_ bv4 8) x47)))
(assert (not (= (_ bv4 8) (_ bv2 8))))
(assert (not (= (_ bv4 8) x56)))
(assert (not (= (_ bv4 8) x57)))
(assert (not (= (_ bv4 8) x58)))
(assert (not (= (_ bv7 8) x46)))
(assert (not (= (_ bv7 8) x47)))
(assert (not (= (_ bv7 8) (_ bv2 8))))
(assert (not (= (_ bv7 8) x56)))
(assert (not (= (_ bv7 8) x57)))
(assert (not (= (_ bv7 8) x58)))
(assert (not (= x46 x47)))
(assert (not (= x46 (_ bv2 8))))
(assert (not (= x46 x56)))
(assert (not (= x46 x57)))
(assert (not (= x46 x58)))
(assert (not (= x47 (_ bv2 8))))
(assert (not (= x47 x56)))
(assert (not (= x47 x57)))
(assert (not (= x47 x58)))
(assert (not (= (_ bv2 8) x56)))
(assert (not (= (_ bv2 8) x57)))
(assert (not (= (_ bv2 8) x58)))
(assert (not (= x56 x57)))
(assert (not (= x56 x58)))
(assert (not (= x57 x58)))
(assert (not (= x60 (_ bv8 8))))
(assert (not (= x60 (_ bv3 8))))
(assert (not (= x60 (_ bv6 8))))
(assert (not (= x60 x71)))
(assert (not (= x60 (_ bv1 8))))
(assert (not (= x60 (_ bv9 8))))
(assert (not (= x60 x81)))
(assert (not (= x60 (_ bv7 8))))
(assert (not (= (_ bv8 8) (_ bv3 8))))
(assert (not (= (_ bv8 8) (_ bv6 8))))
(assert (not (= (_ bv8 8) x71)))
(assert (not (= (_ bv8 8) (_ bv1 8))))
(assert (not (= (_ bv8 8) (_ bv9 8))))
(assert (not (= (_ bv8 8) x81)))
(assert (not (= (_ bv8 8) (_ bv7 8))))
(assert (not (= (_ bv3 8) (_ bv6 8))))
(assert (not (= (_ bv3 8) x71)))
(assert (not (= (_ bv3 8) (_ bv1 8))))
(assert (not (= (_ bv3 8) (_ bv9 8))))
(assert (not (= (_ bv3 8) x81)))
(assert (not (= (_ bv3 8) (_ bv7 8))))
(assert (not (= (_ bv6 8) x71)))
(assert (not (= (_ bv6 8) (_ bv1 8))))
(assert (not (= (_ bv6 8) (_ bv9 8))))
(assert (not (= (_ bv6 8) x81)))
(assert (not (= (_ bv6 8) (_ bv7 8))))
(assert (not (= x71 (_ bv1 8))))
(assert (not (= x71 (_ bv9 8))))
(assert (not (= x71 x81)))
(assert (not (= x71 (_ bv7 8))))
(assert (not (= (_ bv1 8) (_ bv9 8))))
(assert (not (= (_ bv1 8) x81)))
(assert (not (= (_ bv1 8) (_ bv7 8))))
(assert (not (= (_ bv9 8) x81)))
(assert (not (= (_ bv9 8) (_ bv7 8))))
(assert (not (= x81 (_ bv7 8))))
(assert (not (= x63 x64)))
(assert (not (= x63 x65)))
(assert (not (= x63 x73)))
(assert (not (= x63 (_ bv5 8))))
(assert (not (= x63 x75)))
(assert (not (= x63 (_ bv2 8))))
(assert (not (= x63 (_ bv6 8))))
(assert (not (= x63 (_ bv4 8))))
(assert (not (= x64 x65)))
(assert (not (= x64 x73)))
(assert (not (= x64 (_ bv5 8))))
(assert (not (= x64 x75)))
(assert (not (= x64 (_ bv2 8))))
(assert (not (= x64 (_ bv6 8))))
(assert (not (= x64 (_ bv4 8))))
(assert (not (= x65 x73)))
(assert (not (= x65 (_ bv5 8))))
(assert (not (= x65 x75)))
(assert (not (= x65 (_ bv2 8))))
(assert (not (= x65 (_ bv6 8))))
(assert (not (= x65 (_ bv4 8))))
(assert (not (= x73 (_ bv5 8))))
(assert (not (= x73 x75)))
(assert (not (= x73 (_ bv2 8))))
(assert (not (= x73 (_ bv6 8))))
(assert (not (= x73 (_ bv4 8))))
(assert (not (= (_ bv5 8) x75)))
(assert (not (= (_ bv5 8) (_ bv2 8))))
(assert (not (= (_ bv5 8) (_ bv6 8))))
(assert (not (= (_ bv5 8) (_ bv4 8))))
(assert (not (= x75 (_ bv2 8))))
(assert (not (= x75 (_ bv6 8))))
(assert (not (= x75 (_ bv4 8))))
(assert (not (= (_ bv2 8) (_ bv6 8))))
(assert (not (= (_ bv2 8) (_ bv4 8))))
(assert (not (= (_ bv6 8) (_ bv4 8))))
(assert (not (= x66 x67)))
(assert (not (= x66 x68)))
(assert (not (= x66 x76)))
(assert (not (= x66 (_ bv9 8))))
(assert (not (= x66 x78)))
(assert (not (= x66 x86)))
(assert (not (= x66 (_ bv3 8))))
(assert (not (= x66 x88)))
(assert (not (= x67 x68)))
(assert (not (= x67 x76)))
(assert (not (= x67 (_ bv9 8))))
(assert (not (= x67 x78)))
(assert (not (= x67 x86)))
(assert (not (= x67 (_ bv3 8))))
(assert (not (= x67 x88)))
(assert (not (= x68 x76)))
(assert (not (= x68 (_ bv9 8))))
(assert (not (= x68 x78)))
(assert (not (= x68 x86)))
(assert (not (= x68 (_ bv3 8))))
(assert (not (= x68 x88)))
(assert (not (= x76 (_ bv9 8))))
(assert (not (= x76 x78)))
(assert (not (= x76 x86)))
(assert (not (= x76 (_ bv3 8))))
(assert (not (= x76 x88)))
(assert (not (= (_ bv9 8) x78)))
(assert (not (= (_ bv9 8) x86)))
(assert (not (= (_ bv9 8) (_ bv3 8))))
(assert (not (= (_ bv9 8) x88)))
(assert (not (= x78 x86)))
(assert (not (= x78 (_ bv3 8))))
(assert (not (= x78 x88)))
(assert (not (= x86 (_ bv3 8))))
(assert (not (= x86 x88)))
(assert (not (= (_ bv3 8) x88)))
(check-sat)
(exit)
